; benchmark generated from python API
(set-info :status unknown)
(declare-datatypes ((IntState 0)) (((Mk1 (val1 Int)) (Mk2 (val2 Int)))))
 (declare-fun c_main_~i~6 () Int)
(declare-fun c_main_~j~6 () Int)
(declare-fun c_main_~k~6 () Int)
(assert
 (let (($x11 (<= c_main_~j~6 (+ (* 2 c_main_~i~6) 1))))
 (let (($x124 (exists ((v_nnf_10_st IntState) (val!93 Int) )(let ((?x56 (val2 v_nnf_10_st)))
 (let (($x83 (<= ?x56 2)))
 (let (($x58 (and (<= (+ ?x56 1) c_main_~k~6) (<= c_main_~j~6 (+ (* 2 ?x56) 1)) $x83)))
 (let (($x52 (not (= v_nnf_10_st (Mk1 val!93)))))
 (and $x52 $x58))))))
 ))
 (let (($x129 (<= c_main_~i~6 2)))
 (let (($x149 (exists ((v_nnf_12 Int) )(let (($x39 (<= v_nnf_12 2)))
 (let (($x141 (<= c_main_~j~6 (+ (* 2 v_nnf_12) 1))))
 (and (<= (+ v_nnf_12 2) c_main_~k~6) $x141 $x39))))
 ))
 (let ((?x172 (* 2 c_main_~i~6)))
 (let (($x130 (<= c_main_~j~6 ?x172)))
 (and (and $x129 $x11 $x130 $x149) (not (and $x129 $x124 $x11))))))))))
(check-sat)
